3
Coordinates from ORCA-job opt E -76.429407273834
  O       0.000000      0.000000      0.120000
  H       0.000000      0.750000     -0.460000
  H       0.000000     -0.750000     -0.460000
3
Coordinates from ORCA-job opt E -76.429891289426
  O       0.000000      0.000000      0.120000
  H       0.000000      0.765596     -0.465844
  H       0.000000     -0.765596     -0.465844
3
Coordinates from ORCA-job opt E -76.429891838698
  O      -0.000000     -0.000000      0.120000
  H       0.000000      0.765070     -0.465730
  H       0.000000     -0.765070     -0.465730
3
Coordinates from ORCA-job opt E -76.429891841860
  O      -0.000000     -0.000000      0.120000
  H       0.000000      0.765024     -0.465752
  H       0.000000     -0.765024     -0.465752
3
Coordinates from ORCA-job opt E -76.429891842290
  O      -0.000000      0.000000      0.120000
  H       0.000000      0.765009     -0.465773
  H       0.000000     -0.765009     -0.465773
3
Coordinates from ORCA-job opt E -76.429891842085
  O      -0.000000      0.000000      0.120000
  H       0.000000      0.765005     -0.465785
  H       0.000000     -0.765005     -0.465785
3
Coordinates from ORCA-job opt E -76.429891842079
  O       0.000000      0.000000      0.120000
  H       0.000000      0.765005     -0.465786
  H       0.000000     -0.765005     -0.465786
3
Coordinates from ORCA-job opt E -76.429891842421
  O      -0.000000     -0.000000      0.120000
  H       0.000000      0.765005     -0.465786
  H       0.000000     -0.765005     -0.465786
3
Coordinates from ORCA-job opt E -76.429891842078
  O      -0.000000      0.000000      0.120000
  H       0.000000      0.765005     -0.465786
  H       0.000000     -0.765005     -0.465786
