6
Coordinates from ORCA-job opt E -132.729772039248
  C          -0.00000000000000      0.00000000000000      0.00000000000000
  C          -0.14812652324732      0.08503086194811      1.44535218945335
  N          -0.26511110039658      0.15226269041398      2.58703969966463
  H          -0.84358556781328     -0.53828755886111     -0.43355238113853
  H           0.03820375617069      0.99992831398273     -0.43364148653898
  H           0.92024568929928     -0.52751172300066     -0.25343382093119
