6
Coordinates from ORCA-job opt E -132.582808503196
  C       0.000000      0.000000      0.000000
  C       0.000000      0.000000      1.458000
  N       0.000000      0.000000      2.615000
  H       0.000000     -1.041000     -0.367500
  H       0.901600      0.520500     -0.367500
  H       0.901600     -0.520500     -0.367500
6
Coordinates from ORCA-job opt E -132.624842250709
  C       0.000000      0.000000      0.000000
  C       0.004621      0.000536      1.448895
  N      -0.000449     -0.003191      2.601867
  H      -0.118762     -1.014001     -0.455615
  H       0.817446      0.608999     -0.459229
  H       0.982577     -0.567206     -0.219896
6
Coordinates from ORCA-job opt E -132.658994632259
  C      -0.000000     -0.000000      0.000000
  C      -0.011563      0.011974      1.440671
  N      -0.033112      0.013128      2.590374
  H      -0.276129     -0.946959     -0.514496
  H       0.679333      0.710616     -0.520859
  H       1.015059     -0.585544     -0.155812
6
Coordinates from ORCA-job opt E -132.706433425398
  C      -0.000000      0.000000     -0.000000
  C      -0.064988      0.044539      1.428799
  N      -0.127620      0.065175      2.574488
  H      -0.580455     -0.762074     -0.538805
  H       0.364872      0.880292     -0.547724
  H       1.027983     -0.592283     -0.148478
6
Coordinates from ORCA-job opt E -132.725601380726
  C       0.000000     -0.000000      0.000000
  C      -0.130696      0.083129      1.419645
  N      -0.242055      0.129425      2.560972
  H      -0.824125     -0.545428     -0.434765
  H       0.053535      0.982241     -0.445021
  H       0.998010     -0.574522     -0.208432
6
Coordinates from ORCA-job opt E -132.729110111713
  C      -0.000000     -0.000000     -0.000000
  C      -0.139502      0.088170      1.438380
  N      -0.256252      0.137216      2.580777
  H      -0.848824     -0.533611     -0.430003
  H       0.030774      0.997379     -0.441051
  H       0.948450     -0.545973     -0.215152
6
Coordinates from ORCA-job opt E -132.729638784840
  C      -0.000000     -0.000000     -0.000000
  C      -0.142987      0.089348      1.447878
  N      -0.261558      0.140827      2.590221
  H      -0.849769     -0.535379     -0.430545
  H       0.031858      0.999151     -0.441412
  H       0.920632     -0.529871     -0.225164
6
Coordinates from ORCA-job opt E -132.729718430750
  C       0.000000     -0.000000     -0.000000
  C      -0.143572      0.088830      1.447918
  N      -0.262451      0.142208      2.590172
  H      -0.845680     -0.539310     -0.431107
  H       0.037353      0.997932     -0.441189
  H       0.922361     -0.530749     -0.234100
6
Coordinates from ORCA-job opt E -132.729763942724
  C      -0.000000      0.000000     -0.000000
  C      -0.145843      0.088255      1.446705
  N      -0.266184      0.146375      2.588538
  H      -0.843406     -0.541141     -0.429345
  H       0.040138      0.997753     -0.437434
  H       0.920827     -0.529552     -0.249346
6
Coordinates from ORCA-job opt E -132.729767871076
  C       0.000000      0.000000     -0.000000
  C      -0.146487      0.087702      1.445872
  N      -0.267230      0.148120      2.587543
  H      -0.844109     -0.540404     -0.429248
  H       0.039184      0.998542     -0.436042
  H       0.919985     -0.528859     -0.252680
6
Coordinates from ORCA-job opt E -132.729770062979
  C       0.000000      0.000000     -0.000000
  C      -0.146863      0.086705      1.445220
  N      -0.267734      0.150028      2.586728
  H      -0.844732     -0.539275     -0.430110
  H       0.037971      0.999333     -0.434973
  H       0.919386     -0.528184     -0.254835
6
Coordinates from ORCA-job opt E -132.729770939954
  C      -0.000000     -0.000000     -0.000000
  C      -0.146895      0.085840      1.445117
  N      -0.267599      0.151220      2.586529
  H      -0.844735     -0.538540     -0.431249
  H       0.037424      0.999642     -0.434533
  H       0.919345     -0.527863     -0.255373
6
Coordinates from ORCA-job opt E -132.729771318334
  C       0.000000     -0.000000      0.000000
  C      -0.146813      0.085209      1.445284
  N      -0.267226      0.151929      2.586648
  H      -0.844446     -0.538169     -0.432208
  H       0.037352      0.999728     -0.434293
  H       0.919565     -0.527725     -0.255186
6
Coordinates from ORCA-job opt E -132.729771416478
  C       0.000000      0.000000     -0.000000
  C      -0.146781      0.085047      1.445424
  N      -0.267004      0.152096      2.586786
  H      -0.844260     -0.538164     -0.432465
  H       0.037509      0.999750     -0.434134
  H       0.919735     -0.527695     -0.254900
6
Coordinates from ORCA-job opt E -132.729771496462
  C      -0.000000     -0.000000     -0.000000
  C      -0.146800      0.084966      1.445525
  N      -0.266811      0.152225      2.586895
  H      -0.844126     -0.538216     -0.432566
  H       0.037703      0.999823     -0.433881
  H       0.919880     -0.527641     -0.254638
6
Coordinates from ORCA-job opt E -132.729771573594
  C      -0.000000     -0.000000      0.000000
  C      -0.146878      0.084924      1.445564
  N      -0.266641      0.152361      2.586950
  H      -0.844053     -0.538265     -0.432603
  H       0.037872      0.999943     -0.433574
  H       0.919984     -0.527556     -0.254448
6
Coordinates from ORCA-job opt E -132.729771647657
  C      -0.000000     -0.000000     -0.000000
  C      -0.147000      0.084913      1.445546
  N      -0.266489      0.152471      2.586954
  H      -0.844026     -0.538287     -0.432633
  H       0.037982      1.000058     -0.433324
  H       0.920041     -0.527466     -0.254335
6
Coordinates from ORCA-job opt E -132.729771738921
  C       0.000000     -0.000000      0.000000
  C      -0.147186      0.084925      1.445491
  N      -0.266289      0.152552      2.586937
  H      -0.843998     -0.538285     -0.432716
  H       0.038067      1.000154     -0.433142
  H       0.920087     -0.527377     -0.254225
6
Coordinates from ORCA-job opt E -132.729771866597
  C      -0.000000      0.000000     -0.000000
  C      -0.147507      0.084967      1.445401
  N      -0.265927      0.152590      2.586920
  H      -0.843923     -0.538261     -0.432931
  H       0.038159      1.000217     -0.433046
  H       0.920151     -0.527290     -0.254029
6
Coordinates from ORCA-job opt E -132.729771980125
  C      -0.000000      0.000000      0.000000
  C      -0.147904      0.085032      1.445316
  N      -0.265438      0.152525      2.586934
  H      -0.843778     -0.538226     -0.433285
  H       0.038238      1.000180     -0.433156
  H       0.920231     -0.527266     -0.253737
6
Coordinates from ORCA-job opt E -132.729772026468
  C       0.000000     -0.000000     -0.000000
  C      -0.148141      0.085075      1.445299
  N      -0.265106      0.152382      2.586985
  H      -0.843635     -0.538214     -0.433569
  H       0.038258      1.000049     -0.433428
  H       0.920282     -0.527342     -0.253502
6
Coordinates from ORCA-job opt E -132.729772036986
  C       0.000000      0.000000     -0.000000
  C      -0.148149      0.085072      1.445330
  N      -0.265063      0.152291      2.587026
  H      -0.843583     -0.538232     -0.433627
  H       0.038235      0.999956     -0.433602
  H       0.920283     -0.527430     -0.253438
6
Coordinates from ORCA-job opt E -132.729772038262
  C       0.000000      0.000000     -0.000000
  C      -0.148115      0.085057      1.445350
  N      -0.265100      0.152270      2.587038
  H      -0.843582     -0.538252     -0.433597
  H       0.038218      0.999932     -0.433640
  H       0.920269     -0.527470     -0.253443
6
Coordinates from ORCA-job opt E -132.729772038914
  C      -0.000000      0.000000     -0.000000
  C      -0.148105      0.085044      1.445356
  N      -0.265120      0.152266      2.587041
  H      -0.843585     -0.538268     -0.433570
  H       0.038209      0.999927     -0.433644
  H       0.920258     -0.527492     -0.253446
6
Coordinates from ORCA-job opt E -132.729772039214
  C      -0.000000      0.000000      0.000000
  C      -0.148112      0.085033      1.445357
  N      -0.265123      0.152264      2.587041
  H      -0.843587     -0.538284     -0.433551
  H       0.038203      0.999927     -0.433642
  H       0.920247     -0.527509     -0.253442
6
Coordinates from ORCA-job opt E -132.729772039260
  C      -0.000000     -0.000000     -0.000000
  C      -0.148122      0.085030      1.445354
  N      -0.265116      0.152263      2.587040
  H      -0.843586     -0.538288     -0.433550
  H       0.038203      0.999928     -0.433641
  H       0.920245     -0.527513     -0.253436
6
Coordinates from ORCA-job opt E -132.729772039250
  C      -0.000000     -0.000000     -0.000000
  C      -0.148126      0.085031      1.445352
  N      -0.265112      0.152263      2.587040
  H      -0.843586     -0.538288     -0.433552
  H       0.038204      0.999928     -0.433641
  H       0.920245     -0.527512     -0.253434
6
Coordinates from ORCA-job opt E -132.729772039298
  C      -0.000000     -0.000000     -0.000000
  C      -0.148126      0.085031      1.445352
  N      -0.265111      0.152263      2.587040
  H      -0.843586     -0.538288     -0.433552
  H       0.038204      0.999928     -0.433641
  H       0.920246     -0.527512     -0.253434
6
Coordinates from ORCA-job opt E -132.729772039248
  C      -0.000000      0.000000      0.000000
  C      -0.148127      0.085031      1.445352
  N      -0.265111      0.152263      2.587040
  H      -0.843586     -0.538288     -0.433552
  H       0.038204      0.999928     -0.433641
  H       0.920246     -0.527512     -0.253434
